
  32    4
  10   10   10   10

   0   0   0   0   0   5 2 3 5 6 9 
   1   1   0   1   1   4 15 8 7 4 
   4   3   1   3   0   4 15 13 10 8 
   6   2   0   2   5   3 14 13 11 
   5   5   3   0   2   3 15 12 11 
   6   2   0   5   6   3 14 12 11 
  10   5   0   4   2   2 13 10 
   8   4   7   3   0   2 12 11 
   6   3   3   0   4   4 19 17 15 14 
   7   4   1   0   1   3 18 17 14 
   2   5   2   3   0   3 24 18 17 
  10   5   2   4   0   2 17 16 
   9   7   6   0   6   2 17 16 
   5   3   0   5   3   2 23 16 
   8   4   0   4   4   2 23 16 
   2   0   2   4   3   3 25 24 20 
   1   6   0   3   6   3 25 23 21 
   7   4   5   0   5   1 19 
   9   4   0   7   2   2 25 20 
   9   7   3   0   4   2 31 22 
   4   0   5   3   9   1 22 
   7   3   5   0   4   4 30 28 27 26 
   1   2   0   5   4   4 30 29 28 27 
   4   0   3   5   3   3 31 28 27 
   3   2   8   3   0   2 31 27 
  10   5   3   0   7   1 29 
   3   3   4   0   2   1 32
   1   8   0   5   5   1 32
   9   8   8   4   0   1 32
   7   2   5   0   6   1 32
   1   1   0   7   2   1 32
   0   0   0   0   0   0 
